c A SAT instance generated from a 3-CNF formula that had 60 clauses and 10 variables
p cnf 10 60
3 1 7 0
-4 -10 -2 0
7 -3 9 0
-5 -2 -7 0
3 -4 -10 0
-3 6 10 0
-9 5 -2 0
-5 4 -8 0
2 -6 -3 0
5 -4 2 0
-4 -3 7 0
-7 -9 -3 0
-6 -3 4 0
-6 -8 -3 0
-4 -5 9 0
-9 -7 -8 0
3 8 9 0
6 2 1 0
-5 10 7 0
-7 5 -4 0
8 2 4 0
3 8 -1 0
3 -2 6 0
-1 3 -4 0
6 9 -3 0
9 -2 3 0
1 -10 7 0
1 -2 -9 0
5 3 7 0
-6 -9 1 0
-7 10 -1 0
1 -8 7 0
-10 5 -4 0
10 8 -1 0
-3 10 -4 0
-8 -2 -9 0
-4 1 -8 0
7 3 -10 0
-10 8 1 0
-4 -5 -2 0
-7 -1 -2 0
10 7 3 0
-5 -10 8 0
9 -3 -6 0
-9 -3 6 0
-5 2 -3 0
-1 8 -10 0
-4 -6 5 0
10 9 3 0
-1 2 -9 0
-6 -5 -1 0
10 8 3 0
3 -2 7 0
-9 8 10 0
-1 10 -7 0
5 3 7 0
6 -1 -10 0
9 -7 3 0
-9 7 -3 0
1 3 -2 0
%
0

18 11 86 86 19 94 38 23 80 68
